language Essence 1.3

letting blksize_delta be
        function(1 --> 10, 2 --> 10, 3 --> 10, 4 --> 10, 5 --> 10, 6 --> 10, 7 --> 10, 8 --> 10, 9 --> 10, 10 --> 10,
                 11 --> 10, 12 --> 10, 13 --> 10, 14 --> 10, 15 --> 10, 16 --> 10, 17 --> 10, 18 --> 10, 19 --> 10,
                 20 --> 10, 21 --> 10, 22 --> 10, 23 --> 10, 24 --> 10, 25 --> 10, 26 --> 10, 27 --> 10, 28 --> 10,
                 29 --> 10, 30 --> 10, 31 --> 10, 32 --> 10, 33 --> 10, 34 --> 10, 35 --> 10, 36 --> 10, 37 --> 10,
                 38 --> 10, 39 --> 10, 40 --> 10, 41 --> 10, 42 --> 10, 43 --> 10)
letting maxcars be
        function(1 --> 8, 2 --> 8, 3 --> 8, 4 --> 8, 5 --> 8, 6 --> 8, 7 --> 8, 8 --> 8, 9 --> 8, 10 --> 8, 11 --> 8,
                 12 --> 8, 13 --> 8, 14 --> 8, 15 --> 8, 16 --> 9, 17 --> 8, 18 --> 8, 19 --> 8, 20 --> 8, 21 --> 10,
                 22 --> 8, 23 --> 8, 24 --> 8, 25 --> 9, 26 --> 8, 27 --> 10, 28 --> 9, 29 --> 10, 30 --> 8, 31 --> 8,
                 32 --> 8, 33 --> 8, 34 --> 8, 35 --> 8, 36 --> 8, 37 --> 8, 38 --> 8, 39 --> 8, 40 --> 8, 41 --> 8,
                 42 --> 9, 43 --> 8)
letting n_cars be 171
letting n_classes be 19
letting n_options be 43
letting quantity be
        function(1 --> 9, 2 --> 9, 3 --> 9, 4 --> 9, 5 --> 9, 6 --> 9, 7 --> 9, 8 --> 9, 9 --> 9, 10 --> 9, 11 --> 9,
                 12 --> 9, 13 --> 9, 14 --> 9, 15 --> 9, 16 --> 9, 17 --> 9, 18 --> 9, 19 --> 9)
letting usage be
        relation((1, 24), (1, 27), (1, 34), (2, 8), (2, 26), (3, 8), (3, 15), (3, 18), (3, 43), (4, 2), (4, 17),
                 (4, 27), (5, 7), (5, 43), (6, 5), (6, 9), (6, 12), (6, 15), (6, 24), (6, 29), (6, 40), (7, 5), (7, 7),
                 (7, 10), (7, 13), (7, 19), (7, 35), (7, 37), (7, 43), (8, 13), (8, 21), (8, 24), (8, 28), (8, 35),
                 (9, 7), (9, 36), (10, 21), (10, 39), (10, 40), (11, 3), (11, 10), (11, 18), (12, 10), (12, 24),
                 (12, 29), (12, 31), (12, 32), (12, 33), (13, 11), (13, 25), (13, 29), (13, 33), (13, 41), (14, 4),
                 (14, 13), (14, 34), (15, 6), (15, 7), (15, 13), (15, 14), (15, 16), (15, 18), (15, 20), (15, 23),
                 (15, 30), (15, 42), (16, 17), (16, 22), (16, 28), (17, 1), (17, 2), (17, 24), (17, 27), (17, 34),
                 (17, 38), (17, 43), (18, 1), (18, 3), (18, 7), (18, 17), (18, 31), (19, 5), (19, 29), (19, 31),
                 (19, 38))
$ Visualisation for usage
$  1 24
$  1 27
$  1 34
$  2  8
$  2 26
$  3  8
$  3 15
$  3 18
$  3 43
$  4  2
$  4 17
$  4 27
$  5  7
$  5 43
$  6  5
$  6  9
$  6 12
$  6 15
$  6 24
$  6 29
$  6 40
$  7  5
$  7  7
$  7 10
$  7 13
$  7 19
$  7 35
$  7 37
$  7 43
$  8 13
$  8 21
$  8 24
$  8 28
$  8 35
$  9  7
$  9 36
$ 10 21
$ 10 39
$ 10 40
$ 11  3
$ 11 10
$ 11 18
$ 12 10
$ 12 24
$ 12 29
$ 12 31
$ 12 32
$ 12 33
$ 13 11
$ 13 25
$ 13 29
$ 13 33
$ 13 41
$ 14  4
$ 14 13
$ 14 34
$ 15  6
$ 15  7
$ 15 13
$ 15 14
$ 15 16
$ 15 18
$ 15 20
$ 15 23
$ 15 30
$ 15 42
$ 16 17
$ 16 22
$ 16 28
$ 17  1
$ 17  2
$ 17 24
$ 17 27
$ 17 34
$ 17 38
$ 17 43
$ 18  1
$ 18  3
$ 18  7
$ 18 17
$ 18 31
$ 19  5
$ 19 29
$ 19 31
$ 19 38

